problems/csplib-prob015/SchursLemma-models/noch/O2/lingeling/model_1_4-6-18-solution000001.eprime-solution
language ESSENCE' 1.0

letting boxes_PartitionOccurrence_FirstIndex be [1, 3, 4, 6, 7, 8; int(1..6)]
letting boxes_PartitionOccurrence_NumParts be 6
letting boxes_PartitionOccurrence_PartSizes be [2, 5, 2, 3, 2, 4; int(1..6)]
letting boxes_PartitionOccurrence_WhichPart be [1, 1, 2, 3, 2, 4, 5, 6, 4, 6, 5, 6, 3, 2, 2, 2, 6, 4; int(1..18)]
