problems/csplib-prob015/SchursLemma-models/noch/O2/lingeling/model_1_4-6-18-solution000001.solution
language Essence 1.3

letting boxes be partition({1, 2}, {3, 5, 14, 15, 16}, {4, 13}, {6, 9, 18}, {7, 11}, {8, 10, 12, 17})
